
Starting CP-SAT solver v9.15.9999
Parameters: log_search_progress: false cp_model_presolve: false linearization_level: 2 add_lp_constraints_lazily: false log_to_stdout: true cut_level: 0 num_workers: 1 stop_after_root_propagation: true log_linear_programming_progress: 2

Initial optimization model '03_product_cut_generator': (model_fingerprint: 0xb4168eae9c285215)
#Variables: 3 (#ints: 1 in objective) (2 primary variables)
  - 2 in [0,4]
  - 1 in [0,16]
#kIntProd: 1

Starting presolve at 0.00s

Presolve summary:
  - 0 affine relations were detected.

Presolved optimization model '03_product_cut_generator': (model_fingerprint: 0xcf780dea7d9f9809)
#Variables: 3 (#ints: 1 in objective) (2 primary variables)
  - 2 in [0,4]
  - 1 in [0,16]
#kIntProd: 1

Preloading model.
#Bound   0.00s best:-inf  next:[-0,16]    initial_domain

Starting search at 0.00s with 1 workers.
1 full problem subsolver: [main]

[Precedences] num_relations=0 num_clauses=0
[Probing] deterministic_time: 0 (limit: 1) wall_time: 2.766e-06 (0/0)
[FinalLinearRelaxation] #linear:0 #cut_generators:1
[LP] relaxation-build linear_rows=0 cut_generators=1 connected_components=4 active_lp_components=1 max_component_vars=3
[LP] register level=0 rows=0 cols=3 managed_constraints=0 cut_generators=1 initial_loading=all_rows objective=yes
Initial num_bool: 0
[LP] solve-start level=0 trigger=level_zero_refresh rows=0 cols=3 managed_constraints=0 changed_bounds=0 iter_limit=2000 forced_retries=0
[LP] solve-done level=0 status=OPTIMAL iterations=0 at_optimal=yes solution_available=yes objective=-4 solution_is_integer=yes
[LP] analyze level=0 status=OPTIMAL new_integer_bounds=0 objective_lb=-16 objective_lb_delta=0
[LP] skip-cut-generation level=0 reason=cut_level_zero
[LP] change-lp level=0 added=0 removed=0 rows_now=0 reason=no_more_violated_lazy_constraints_or_cuts root_lp_final=yes scanned=0 violated=0 candidate_limit=0

Starting subsolver 'main' hint search at 0.01s
Starting subsolver 'main' search at 0.01s

Task timing           n [     min,      max]      avg      dev     time         n [     min,      max]      avg      dev    dtime
      'main':         1 [  1.31ms,   1.31ms]   1.31ms   0.00ns   1.31ms         1 [ 40.00ns,  40.00ns]  40.00ns   0.00ns  40.00ns

Search stats    Bools  Conflicts  Branches  Restarts  BacktrackToRoot  Backtrack  BoolPropag  IntegerPropag
       'main':      0          0         0         0                0          0           0              0

SAT formula    Fixed  Equiv  Total  VarLeft  BinaryClauses  PermanentClauses  TemporaryClauses
      'main':      0      0      0        0              0                 0                 0

SAT stats    ClassicMinim  LitRemoved  LitRemovedBinary  LitLearned  LitForgotten  Subsumed
    'main':             0           0                 0           0             0         0

Vivification    Clauses  Decisions  LitTrue  Subsumed  LitRemoved  DecisionReused  Conflicts
       'main':        0          0        0         0           0               0          0

Clause deletion    at_true  l_and_not(l)  to_binary  sub_conflict  sub_extra  sub_decisions  sub_eager  sub_vivify  sub_probing  sub_inpro  blocked  eliminated  forgotten  promoted  conflicts
          'main':        0             0          0             0          0              0          0           0            0          0        0           0          0         0          0

Lp stats    Component  Iterations  AddedCuts  OPTIMAL  DUAL_F.  DUAL_U.
   'main':          1           0          0        1        0        0

Lp dimension    Final dimension of first component
       'main':        0 rows, 3 columns, 0 entries

Lp debug    CutPropag  CutEqPropag  Adjust  Overflow  Bad  BadScaling
   'main':          0            0       0         0    0           0

Lp pool    Constraints  Updates  Simplif  Merged  Shortened  Split  Strengthened  Cuts/Call
  'main':            0        0        0       0          0      0             0        0/0

Objective bounds     Num
  'initial_domain':    1

Solution repositories    Added  Queried  Synchro
    'alternative_path':      0        0        0
      'best_solutions':      0        0        0
   'fj solution hints':      0        0        0

LRAT_status: NA
CpSolverResponse summary:
status: UNKNOWN
objective: -0
best_bound: 16
integers: 3
booleans: 0
conflicts: 0
branches: 0
propagations: 0
integer_propagations: 0
restarts: 0
lp_iterations: 0
walltime: 0.00626615
usertime: 0.00626624
deterministic_time: 4e-08
gap_integral: 0

